; SPDX-License-Identifier: MPL-2.0
; Copyright (c) 2026 The RIINA Authors.
; Auto-generated from 02_FORMAL/coq/domains/HypervisorSecurity.v (89 validations)
; Generated by scripts/generate-full-stack.py
;
; Translation Validation for HypervisorSecurity
; Layer 9: Verifies compiler backend preserves formal semantics.
; Each assertion checks source IR ≡ target code for a proven property.

(set-logic QF_LIA)
(set-option :produce-models true)

; IR node representation
(declare-sort IRNode 0)
(declare-sort TargetNode 0)

; vm_fully_isolated: source semantics (matches Coq)
(declare-fun source_vm_fully_isolated () Bool)
(declare-fun target_vm_fully_isolated () Bool)
(assert (= source_vm_fully_isolated target_vm_fully_isolated))

; side_channel_mitigated: source semantics (matches Coq)
(declare-fun source_side_channel_mitigated () Bool)
(declare-fun target_side_channel_mitigated () Bool)
(assert (= source_side_channel_mitigated target_side_channel_mitigated))

; mem_virt_secure: source semantics (matches Coq)
(declare-fun source_mem_virt_secure () Bool)
(declare-fun target_mem_virt_secure () Bool)
(assert (= source_mem_virt_secure target_mem_virt_secure))

; int_virt_secure: source semantics (matches Coq)
(declare-fun source_int_virt_secure () Bool)
(declare-fun target_int_virt_secure () Bool)
(assert (= source_int_virt_secure target_int_virt_secure))

; world_switch_secure: source semantics (matches Coq)
(declare-fun source_world_switch_secure () Bool)
(declare-fun target_world_switch_secure () Bool)
(assert (= source_world_switch_secure target_world_switch_secure))

; hv_secure: source semantics (matches Coq)
(declare-fun source_hv_secure () Bool)
(declare-fun target_hv_secure () Bool)
(assert (= source_hv_secure target_hv_secure))

; hv_fully_secure: source semantics (matches Coq)
(declare-fun source_hv_fully_secure () Bool)
(declare-fun target_hv_fully_secure () Bool)
(assert (= source_hv_fully_secure target_hv_fully_secure))

; riina_vm_isolation: source semantics (matches Coq)
(declare-fun source_riina_vm_isolation () Bool)
(declare-fun target_riina_vm_isolation () Bool)
(assert (= source_riina_vm_isolation target_riina_vm_isolation))

; riina_side_channel: source semantics (matches Coq)
(declare-fun source_riina_side_channel () Bool)
(declare-fun target_riina_side_channel () Bool)
(assert (= source_riina_side_channel target_riina_side_channel))

; riina_mem_virt: source semantics (matches Coq)
(declare-fun source_riina_mem_virt () Bool)
(declare-fun target_riina_mem_virt () Bool)
(assert (= source_riina_mem_virt target_riina_mem_virt))

; riina_int_virt: source semantics (matches Coq)
(declare-fun source_riina_int_virt () Bool)
(declare-fun target_riina_int_virt () Bool)
(assert (= source_riina_int_virt target_riina_int_virt))

; riina_world_switch: source semantics (matches Coq)
(declare-fun source_riina_world_switch () Bool)
(declare-fun target_riina_world_switch () Bool)
(assert (= source_riina_world_switch target_riina_world_switch))

; riina_hypervisor: source semantics (matches Coq)
(declare-fun source_riina_hypervisor () Bool)
(declare-fun target_riina_hypervisor () Bool)
(assert (= source_riina_hypervisor target_riina_hypervisor))

; andb_true_iff: translation preserves property (matches Coq: Lemma)
(declare-fun source_andb_true_iff () Bool)
(declare-fun target_andb_true_iff () Bool)
(assert (= source_andb_true_iff target_andb_true_iff))

; andb_true_intro: translation preserves property (matches Coq: Lemma)
(declare-fun source_andb_true_intro () Bool)
(declare-fun target_andb_true_intro () Bool)
(assert (= source_andb_true_intro target_andb_true_intro))

; andb_true_elim_l: translation preserves property (matches Coq: Lemma)
(declare-fun source_andb_true_elim_l () Bool)
(declare-fun target_andb_true_elim_l () Bool)
(assert (= source_andb_true_elim_l target_andb_true_elim_l))

; andb_true_elim_r: translation preserves property (matches Coq: Lemma)
(declare-fun source_andb_true_elim_r () Bool)
(declare-fun target_andb_true_elim_r () Bool)
(assert (= source_andb_true_elim_r target_andb_true_elim_r))

; HV_001: translation preserves property (matches Coq: Theorem)
(declare-fun source_HV_001 () Bool)
(declare-fun target_HV_001 () Bool)
(assert (= source_HV_001 target_HV_001))

; HV_002: translation preserves property (matches Coq: Theorem)
(declare-fun source_HV_002 () Bool)
(declare-fun target_HV_002 () Bool)
(assert (= source_HV_002 target_HV_002))

; HV_003: translation preserves property (matches Coq: Theorem)
(declare-fun source_HV_003 () Bool)
(declare-fun target_HV_003 () Bool)
(assert (= source_HV_003 target_HV_003))

; HV_004: translation preserves property (matches Coq: Theorem)
(declare-fun source_HV_004 () Bool)
(declare-fun target_HV_004 () Bool)
(assert (= source_HV_004 target_HV_004))

; HV_005: translation preserves property (matches Coq: Theorem)
(declare-fun source_HV_005 () Bool)
(declare-fun target_HV_005 () Bool)
(assert (= source_HV_005 target_HV_005))

; HV_006: translation preserves property (matches Coq: Theorem)
(declare-fun source_HV_006 () Bool)
(declare-fun target_HV_006 () Bool)
(assert (= source_HV_006 target_HV_006))

; HV_007: translation preserves property (matches Coq: Theorem)
(declare-fun source_HV_007 () Bool)
(declare-fun target_HV_007 () Bool)
(assert (= source_HV_007 target_HV_007))

; HV_008: translation preserves property (matches Coq: Theorem)
(declare-fun source_HV_008 () Bool)
(declare-fun target_HV_008 () Bool)
(assert (= source_HV_008 target_HV_008))

; HV_009: translation preserves property (matches Coq: Theorem)
(declare-fun source_HV_009 () Bool)
(declare-fun target_HV_009 () Bool)
(assert (= source_HV_009 target_HV_009))

; HV_010: translation preserves property (matches Coq: Theorem)
(declare-fun source_HV_010 () Bool)
(declare-fun target_HV_010 () Bool)
(assert (= source_HV_010 target_HV_010))

; HV_011: translation preserves property (matches Coq: Theorem)
(declare-fun source_HV_011 () Bool)
(declare-fun target_HV_011 () Bool)
(assert (= source_HV_011 target_HV_011))

; HV_012: translation preserves property (matches Coq: Theorem)
(declare-fun source_HV_012 () Bool)
(declare-fun target_HV_012 () Bool)
(assert (= source_HV_012 target_HV_012))

; HV_013: translation preserves property (matches Coq: Theorem)
(declare-fun source_HV_013 () Bool)
(declare-fun target_HV_013 () Bool)
(assert (= source_HV_013 target_HV_013))

; HV_014: translation preserves property (matches Coq: Theorem)
(declare-fun source_HV_014 () Bool)
(declare-fun target_HV_014 () Bool)
(assert (= source_HV_014 target_HV_014))

; HV_015: translation preserves property (matches Coq: Theorem)
(declare-fun source_HV_015 () Bool)
(declare-fun target_HV_015 () Bool)
(assert (= source_HV_015 target_HV_015))

; HV_016: translation preserves property (matches Coq: Theorem)
(declare-fun source_HV_016 () Bool)
(declare-fun target_HV_016 () Bool)
(assert (= source_HV_016 target_HV_016))

; HV_017: translation preserves property (matches Coq: Theorem)
(declare-fun source_HV_017 () Bool)
(declare-fun target_HV_017 () Bool)
(assert (= source_HV_017 target_HV_017))

; HV_018: translation preserves property (matches Coq: Theorem)
(declare-fun source_HV_018 () Bool)
(declare-fun target_HV_018 () Bool)
(assert (= source_HV_018 target_HV_018))

; HV_019: translation preserves property (matches Coq: Theorem)
(declare-fun source_HV_019 () Bool)
(declare-fun target_HV_019 () Bool)
(assert (= source_HV_019 target_HV_019))

; HV_020: translation preserves property (matches Coq: Theorem)
(declare-fun source_HV_020 () Bool)
(declare-fun target_HV_020 () Bool)
(assert (= source_HV_020 target_HV_020))

; HV_021: translation preserves property (matches Coq: Theorem)
(declare-fun source_HV_021 () Bool)
(declare-fun target_HV_021 () Bool)
(assert (= source_HV_021 target_HV_021))

; HV_022: translation preserves property (matches Coq: Theorem)
(declare-fun source_HV_022 () Bool)
(declare-fun target_HV_022 () Bool)
(assert (= source_HV_022 target_HV_022))

; HV_023: translation preserves property (matches Coq: Theorem)
(declare-fun source_HV_023 () Bool)
(declare-fun target_HV_023 () Bool)
(assert (= source_HV_023 target_HV_023))

; HV_024: translation preserves property (matches Coq: Theorem)
(declare-fun source_HV_024 () Bool)
(declare-fun target_HV_024 () Bool)
(assert (= source_HV_024 target_HV_024))

; HV_025: translation preserves property (matches Coq: Theorem)
(declare-fun source_HV_025 () Bool)
(declare-fun target_HV_025 () Bool)
(assert (= source_HV_025 target_HV_025))

; HV_026: translation preserves property (matches Coq: Theorem)
(declare-fun source_HV_026 () Bool)
(declare-fun target_HV_026 () Bool)
(assert (= source_HV_026 target_HV_026))

; HV_027: translation preserves property (matches Coq: Theorem)
(declare-fun source_HV_027 () Bool)
(declare-fun target_HV_027 () Bool)
(assert (= source_HV_027 target_HV_027))

; HV_028: translation preserves property (matches Coq: Theorem)
(declare-fun source_HV_028 () Bool)
(declare-fun target_HV_028 () Bool)
(assert (= source_HV_028 target_HV_028))

; HV_029: translation preserves property (matches Coq: Theorem)
(declare-fun source_HV_029 () Bool)
(declare-fun target_HV_029 () Bool)
(assert (= source_HV_029 target_HV_029))

; HV_030: translation preserves property (matches Coq: Theorem)
(declare-fun source_HV_030 () Bool)
(declare-fun target_HV_030 () Bool)
(assert (= source_HV_030 target_HV_030))

; HV_031: translation preserves property (matches Coq: Theorem)
(declare-fun source_HV_031 () Bool)
(declare-fun target_HV_031 () Bool)
(assert (= source_HV_031 target_HV_031))

; HV_032: translation preserves property (matches Coq: Theorem)
(declare-fun source_HV_032 () Bool)
(declare-fun target_HV_032 () Bool)
(assert (= source_HV_032 target_HV_032))

; HV_033: translation preserves property (matches Coq: Theorem)
(declare-fun source_HV_033 () Bool)
(declare-fun target_HV_033 () Bool)
(assert (= source_HV_033 target_HV_033))

; HV_034: translation preserves property (matches Coq: Theorem)
(declare-fun source_HV_034 () Bool)
(declare-fun target_HV_034 () Bool)
(assert (= source_HV_034 target_HV_034))

; HV_035: translation preserves property (matches Coq: Theorem)
(declare-fun source_HV_035 () Bool)
(declare-fun target_HV_035 () Bool)
(assert (= source_HV_035 target_HV_035))

; HV_036: translation preserves property (matches Coq: Theorem)
(declare-fun source_HV_036 () Bool)
(declare-fun target_HV_036 () Bool)
(assert (= source_HV_036 target_HV_036))

; HV_037: translation preserves property (matches Coq: Theorem)
(declare-fun source_HV_037 () Bool)
(declare-fun target_HV_037 () Bool)
(assert (= source_HV_037 target_HV_037))

; HV_038: translation preserves property (matches Coq: Theorem)
(declare-fun source_HV_038 () Bool)
(declare-fun target_HV_038 () Bool)
(assert (= source_HV_038 target_HV_038))

; HV_039: translation preserves property (matches Coq: Theorem)
(declare-fun source_HV_039 () Bool)
(declare-fun target_HV_039 () Bool)
(assert (= source_HV_039 target_HV_039))

; HV_040: translation preserves property (matches Coq: Theorem)
(declare-fun source_HV_040 () Bool)
(declare-fun target_HV_040 () Bool)
(assert (= source_HV_040 target_HV_040))

; HV_041: translation preserves property (matches Coq: Theorem)
(declare-fun source_HV_041 () Bool)
(declare-fun target_HV_041 () Bool)
(assert (= source_HV_041 target_HV_041))

; HV_042: translation preserves property (matches Coq: Theorem)
(declare-fun source_HV_042 () Bool)
(declare-fun target_HV_042 () Bool)
(assert (= source_HV_042 target_HV_042))

; HV_043: translation preserves property (matches Coq: Theorem)
(declare-fun source_HV_043 () Bool)
(declare-fun target_HV_043 () Bool)
(assert (= source_HV_043 target_HV_043))

; HV_044: translation preserves property (matches Coq: Theorem)
(declare-fun source_HV_044 () Bool)
(declare-fun target_HV_044 () Bool)
(assert (= source_HV_044 target_HV_044))

; HV_045: translation preserves property (matches Coq: Theorem)
(declare-fun source_HV_045 () Bool)
(declare-fun target_HV_045 () Bool)
(assert (= source_HV_045 target_HV_045))

; HV_046: translation preserves property (matches Coq: Theorem)
(declare-fun source_HV_046 () Bool)
(declare-fun target_HV_046 () Bool)
(assert (= source_HV_046 target_HV_046))

; HV_047: translation preserves property (matches Coq: Theorem)
(declare-fun source_HV_047 () Bool)
(declare-fun target_HV_047 () Bool)
(assert (= source_HV_047 target_HV_047))

; HV_048: translation preserves property (matches Coq: Theorem)
(declare-fun source_HV_048 () Bool)
(declare-fun target_HV_048 () Bool)
(assert (= source_HV_048 target_HV_048))

; HV_049: translation preserves property (matches Coq: Theorem)
(declare-fun source_HV_049 () Bool)
(declare-fun target_HV_049 () Bool)
(assert (= source_HV_049 target_HV_049))

; HV_050: translation preserves property (matches Coq: Theorem)
(declare-fun source_HV_050 () Bool)
(declare-fun target_HV_050 () Bool)
(assert (= source_HV_050 target_HV_050))

; HV_051: translation preserves property (matches Coq: Theorem)
(declare-fun source_HV_051 () Bool)
(declare-fun target_HV_051 () Bool)
(assert (= source_HV_051 target_HV_051))

; HV_052: translation preserves property (matches Coq: Theorem)
(declare-fun source_HV_052 () Bool)
(declare-fun target_HV_052 () Bool)
(assert (= source_HV_052 target_HV_052))

; HV_053: translation preserves property (matches Coq: Theorem)
(declare-fun source_HV_053 () Bool)
(declare-fun target_HV_053 () Bool)
(assert (= source_HV_053 target_HV_053))

; HV_054: translation preserves property (matches Coq: Theorem)
(declare-fun source_HV_054 () Bool)
(declare-fun target_HV_054 () Bool)
(assert (= source_HV_054 target_HV_054))

; HV_055: translation preserves property (matches Coq: Theorem)
(declare-fun source_HV_055 () Bool)
(declare-fun target_HV_055 () Bool)
(assert (= source_HV_055 target_HV_055))

; HV_056: translation preserves property (matches Coq: Theorem)
(declare-fun source_HV_056 () Bool)
(declare-fun target_HV_056 () Bool)
(assert (= source_HV_056 target_HV_056))

; HV_057: translation preserves property (matches Coq: Theorem)
(declare-fun source_HV_057 () Bool)
(declare-fun target_HV_057 () Bool)
(assert (= source_HV_057 target_HV_057))

; HV_058: translation preserves property (matches Coq: Theorem)
(declare-fun source_HV_058 () Bool)
(declare-fun target_HV_058 () Bool)
(assert (= source_HV_058 target_HV_058))

; HV_059: translation preserves property (matches Coq: Theorem)
(declare-fun source_HV_059 () Bool)
(declare-fun target_HV_059 () Bool)
(assert (= source_HV_059 target_HV_059))

; HV_060: translation preserves property (matches Coq: Theorem)
(declare-fun source_HV_060 () Bool)
(declare-fun target_HV_060 () Bool)
(assert (= source_HV_060 target_HV_060))

; HV_061: translation preserves property (matches Coq: Theorem)
(declare-fun source_HV_061 () Bool)
(declare-fun target_HV_061 () Bool)
(assert (= source_HV_061 target_HV_061))

; HV_062: translation preserves property (matches Coq: Theorem)
(declare-fun source_HV_062 () Bool)
(declare-fun target_HV_062 () Bool)
(assert (= source_HV_062 target_HV_062))

; HV_063: translation preserves property (matches Coq: Theorem)
(declare-fun source_HV_063 () Bool)
(declare-fun target_HV_063 () Bool)
(assert (= source_HV_063 target_HV_063))

; HV_064: translation preserves property (matches Coq: Theorem)
(declare-fun source_HV_064 () Bool)
(declare-fun target_HV_064 () Bool)
(assert (= source_HV_064 target_HV_064))

; HV_065: translation preserves property (matches Coq: Theorem)
(declare-fun source_HV_065 () Bool)
(declare-fun target_HV_065 () Bool)
(assert (= source_HV_065 target_HV_065))

; HV_066: translation preserves property (matches Coq: Theorem)
(declare-fun source_HV_066 () Bool)
(declare-fun target_HV_066 () Bool)
(assert (= source_HV_066 target_HV_066))

; HV_067: translation preserves property (matches Coq: Theorem)
(declare-fun source_HV_067 () Bool)
(declare-fun target_HV_067 () Bool)
(assert (= source_HV_067 target_HV_067))

; HV_068: translation preserves property (matches Coq: Theorem)
(declare-fun source_HV_068 () Bool)
(declare-fun target_HV_068 () Bool)
(assert (= source_HV_068 target_HV_068))

; HV_069: translation preserves property (matches Coq: Theorem)
(declare-fun source_HV_069 () Bool)
(declare-fun target_HV_069 () Bool)
(assert (= source_HV_069 target_HV_069))

; HV_070: translation preserves property (matches Coq: Theorem)
(declare-fun source_HV_070 () Bool)
(declare-fun target_HV_070 () Bool)
(assert (= source_HV_070 target_HV_070))

; HV_071: translation preserves property (matches Coq: Theorem)
(declare-fun source_HV_071 () Bool)
(declare-fun target_HV_071 () Bool)
(assert (= source_HV_071 target_HV_071))

; HV_072: translation preserves property (matches Coq: Theorem)
(declare-fun source_HV_072 () Bool)
(declare-fun target_HV_072 () Bool)
(assert (= source_HV_072 target_HV_072))

; HV_073: translation preserves property (matches Coq: Theorem)
(declare-fun source_HV_073 () Bool)
(declare-fun target_HV_073 () Bool)
(assert (= source_HV_073 target_HV_073))

; HV_074: translation preserves property (matches Coq: Theorem)
(declare-fun source_HV_074 () Bool)
(declare-fun target_HV_074 () Bool)
(assert (= source_HV_074 target_HV_074))

; HV_075: translation preserves property (matches Coq: Theorem)
(declare-fun source_HV_075 () Bool)
(declare-fun target_HV_075 () Bool)
(assert (= source_HV_075 target_HV_075))

; HV_076: translation preserves property (matches Coq: Theorem)
(declare-fun source_HV_076 () Bool)
(declare-fun target_HV_076 () Bool)
(assert (= source_HV_076 target_HV_076))

; HV_077: translation preserves property (matches Coq: Theorem)
(declare-fun source_HV_077 () Bool)
(declare-fun target_HV_077 () Bool)
(assert (= source_HV_077 target_HV_077))

; HV_078: translation preserves property (matches Coq: Theorem)
(declare-fun source_HV_078 () Bool)
(declare-fun target_HV_078 () Bool)
(assert (= source_HV_078 target_HV_078))

; HV_079: translation preserves property (matches Coq: Theorem)
(declare-fun source_HV_079 () Bool)
(declare-fun target_HV_079 () Bool)
(assert (= source_HV_079 target_HV_079))

; HV_080: translation preserves property (matches Coq: Theorem)
(declare-fun source_HV_080 () Bool)
(declare-fun target_HV_080 () Bool)
(assert (= source_HV_080 target_HV_080))

; HV_081: translation preserves property (matches Coq: Theorem)
(declare-fun source_HV_081 () Bool)
(declare-fun target_HV_081 () Bool)
(assert (= source_HV_081 target_HV_081))

; HV_082: translation preserves property (matches Coq: Theorem)
(declare-fun source_HV_082 () Bool)
(declare-fun target_HV_082 () Bool)
(assert (= source_HV_082 target_HV_082))

; HV_083: translation preserves property (matches Coq: Theorem)
(declare-fun source_HV_083 () Bool)
(declare-fun target_HV_083 () Bool)
(assert (= source_HV_083 target_HV_083))

; HV_084: translation preserves property (matches Coq: Theorem)
(declare-fun source_HV_084 () Bool)
(declare-fun target_HV_084 () Bool)
(assert (= source_HV_084 target_HV_084))

; HV_085_complete: translation preserves property (matches Coq: Theorem)
(declare-fun source_HV_085_complete () Bool)
(declare-fun target_HV_085_complete () Bool)
(assert (= source_HV_085_complete target_HV_085_complete))

; Verify all translation validations are satisfiable
(check-sat)
(exit)
